NAME : cgl_44.8949.tour
COMMENT : Length = 8949
COMMENT : Found by LKH-3 [Keld Helsgaun] Thu Jun 26 21:26:48 2025
TYPE : TOUR
DIMENSION : 45
TOUR_SECTION
9
8
6
1
12
14
15
13
17
16
18
19
20
21
22
23
34
25
35
44
41
43
36
37
40
42
38
39
24
33
32
30
31
29
28
26
27
45
5
3
4
2
7
10
11
-1
EOF
